NAME : random_14
COMMENT : 30 random nodes
TYPE : TSP
DIMENSION : 30
EDGE_WEIGHT_TYPE : EUC_2D
NODE_COORD_SECTION
1 807 612
2 827 78
3 781 259
4 977 284
5 924 181
6 205 36
7 255 796
8 656 504
9 173 615
10 285 551
11 295 404
12 598 247
13 988 770
14 282 924
15 677 204
16 58 156
17 726 180
18 442 686
19 406 662
20 737 210
21 983 181
22 630 987
23 635 905
24 201 848
25 151 71
26 143 151
27 426 347
28 15 239
29 979 201
30 834 379
EOF